10
0 37 73 67 86 73 93 45 97 68 
45 0 34 87 78 79 100 21 42 84 
100 66 0 100 31 66 2 27 48 79 
99 46 12 0 32 38 97 14 93 95 
82 5 71 90 0 93 29 51 41 15 
40 76 68 82 90 0 16 60 97 18 
81 75 69 78 66 75 0 9 77 55 
57 78 48 32 36 86 99 0 78 66 
58 4 10 37 21 99 32 34 0 87 
52 59 66 57 75 98 70 79 11 0 
